68
1 0 5
2 0 7
2 1 8
3 0 3
3 1 6
3 2 2
4 0 4
4 1 4
4 2 9
4 3 1
5 0 1
5 1 7
5 2 4
5 3 5
5 4 4
6 0 1
6 1 3
6 2 4
6 3 8
6 4 4
6 5 4
7 0 1
7 1 4
7 2 1
7 3 4
7 4 7
7 5 4
7 6 3
8 0 4
8 1 4
8 2 1
8 3 4
8 4 7
8 5 7
8 6 6
8 7 6
9 0 2
9 1 8
9 2 2
9 3 3
9 4 2
9 5 1
9 6 9
9 7 6
9 8 2
10 0 8
10 1 6
10 2 6
10 3 4
10 4 5
10 5 5
10 6 3
10 7 5
10 8 7
10 9 1
11 0 5
11 1 6
11 2 8
11 3 8
11 4 5
11 5 9
11 6 5
11 7 3
11 8 1
11 9 7
11 10 9
12 0 2
12 1 7
12 2 1
12 3 8
12 4 8
12 5 9
12 6 2
12 7 1
12 8 4
12 9 8
12 10 1
12 11 9
13 0 5
13 1 8
13 2 7
13 3 1
13 4 9
13 5 4
13 6 8
13 7 2
13 8 4
13 9 6
13 10 1
13 11 5
13 12 6
14 0 9
14 1 1
14 2 9
14 3 2
14 4 7
14 5 5
14 6 7
14 7 3
14 8 5
14 9 1
14 10 2
14 11 1
14 12 5
14 13 2
15 0 5
15 1 6
15 2 5
15 3 3
15 4 8
15 5 6
15 6 8
15 7 4
15 8 1
15 9 6
15 10 8
15 11 2
15 12 9
15 13 2
15 14 6
16 0 9
16 1 9
16 2 6
16 3 6
16 4 4
16 5 8
16 6 5
16 7 4
16 8 7
16 9 4
16 10 8
16 11 7
16 12 8
16 13 4
16 14 6
16 15 1
17 0 9
17 1 9
17 2 8
17 3 2
17 4 9
17 5 8
17 6 7
17 7 8
17 8 8
17 9 2
17 10 4
17 11 2
17 12 9
17 13 9
17 14 7
17 15 9
17 16 4
18 0 2
18 1 5
18 2 8
18 3 2
18 4 2
18 5 3
18 6 6
18 7 5
18 8 6
18 9 8
18 10 4
18 11 2
18 12 7
18 13 4
18 14 3
18 15 5
18 16 8
18 17 4
19 0 1
19 1 7
19 2 7
19 3 5
19 4 5
19 5 9
19 6 5
19 7 4
19 8 8
19 9 7
19 10 8
19 11 8
19 12 2
19 13 6
19 14 4
19 15 6
19 16 7
19 17 9
19 18 8
20 0 2
20 1 8
20 2 8
20 3 1
20 4 3
20 5 6
20 6 9
20 7 1
20 8 8
20 9 8
20 10 3
20 11 6
20 12 4
20 13 1
20 14 2
20 15 6
20 16 8
20 17 3
20 18 2
20 19 9
21 0 5
21 1 5
21 2 9
21 3 8
21 4 1
21 5 9
21 6 9
21 7 4
21 8 4
21 9 8
21 10 4
21 11 4
21 12 9
21 13 9
21 14 6
21 15 6
21 16 7
21 17 5
21 18 7
21 19 7
21 20 3
22 0 6
22 1 9
22 2 2
22 3 4
22 4 7
22 5 9
22 6 2
22 7 6
22 8 4
22 9 5
22 10 2
22 11 7
22 12 8
22 13 9
22 14 1
22 15 8
22 16 6
22 17 2
22 18 8
22 19 9
22 20 5
22 21 1
23 0 5
23 1 9
23 2 9
23 3 2
23 4 2
23 5 5
23 6 5
23 7 7
23 8 2
23 9 7
23 10 9
23 11 8
23 12 2
23 13 9
23 14 1
23 15 1
23 16 4
23 17 4
23 18 9
23 19 4
23 20 4
23 21 7
23 22 9
24 0 3
24 1 9
24 2 9
24 3 5
24 4 8
24 5 8
24 6 4
24 7 7
24 8 7
24 9 9
24 10 8
24 11 6
24 12 1
24 13 1
24 14 8
24 15 2
24 16 8
24 17 1
24 18 3
24 19 6
24 20 5
24 21 3
24 22 6
24 23 1
25 0 8
25 1 7
25 2 2
25 3 7
25 4 9
25 5 5
25 6 8
25 7 8
25 8 3
25 9 2
25 10 3
25 11 6
25 12 9
25 13 9
25 14 5
25 15 3
25 16 6
25 17 4
25 18 1
25 19 5
25 20 4
25 21 8
25 22 6
25 23 3
25 24 9
26 0 3
26 1 4
26 2 2
26 3 2
26 4 2
26 5 3
26 6 3
26 7 5
26 8 4
26 9 9
26 10 5
26 11 2
26 12 6
26 13 7
26 14 1
26 15 6
26 16 8
26 17 6
26 18 7
26 19 7
26 20 2
26 21 4
26 22 7
26 23 7
26 24 5
26 25 1
27 0 8
27 1 4
27 2 3
27 3 4
27 4 7
27 5 6
27 6 2
27 7 2
27 8 5
27 9 6
27 10 6
27 11 1
27 12 1
27 13 1
27 14 8
27 15 4
27 16 9
27 17 1
27 18 1
27 19 8
27 20 4
27 21 7
27 22 2
27 23 1
27 24 7
27 25 8
27 26 3
28 0 6
28 1 3
28 2 5
28 3 1
28 4 4
28 5 3
28 6 2
28 7 7
28 8 2
28 9 2
28 10 4
28 11 3
28 12 8
28 13 8
28 14 9
28 15 5
28 16 3
28 17 6
28 18 7
28 19 4
28 20 2
28 21 7
28 22 1
28 23 4
28 24 1
28 25 6
28 26 4
28 27 6
29 0 9
29 1 4
29 2 1
29 3 4
29 4 5
29 5 9
29 6 5
29 7 8
29 8 8
29 9 9
29 10 7
29 11 4
29 12 1
29 13 1
29 14 6
29 15 6
29 16 2
29 17 9
29 18 9
29 19 7
29 20 5
29 21 1
29 22 5
29 23 7
29 24 5
29 25 3
29 26 8
29 27 8
29 28 2
30 0 3
30 1 7
30 2 5
30 3 7
30 4 5
30 5 6
30 6 6
30 7 6
30 8 7
30 9 1
30 10 9
30 11 9
30 12 2
30 13 9
30 14 4
30 15 8
30 16 5
30 17 7
30 18 3
30 19 7
30 20 1
30 21 4
30 22 3
30 23 7
30 24 1
30 25 7
30 26 4
30 27 7
30 28 2
30 29 1
31 0 8
31 1 5
31 2 9
31 3 6
31 4 9
31 5 2
31 6 6
31 7 9
31 8 3
31 9 2
31 10 5
31 11 1
31 12 6
31 13 6
31 14 3
31 15 1
31 16 9
31 17 6
31 18 9
31 19 8
31 20 3
31 21 1
31 22 8
31 23 1
31 24 6
31 25 1
31 26 6
31 27 6
31 28 5
31 29 9
31 30 9
32 0 9
32 1 3
32 2 9
32 3 9
32 4 5
32 5 8
32 6 4
32 7 7
32 8 3
32 9 7
32 10 3
32 11 9
32 12 5
32 13 1
32 14 1
32 15 6
32 16 8
32 17 7
32 18 1
32 19 3
32 20 5
32 21 5
32 22 8
32 23 7
32 24 9
32 25 9
32 26 3
32 27 3
32 28 5
32 29 9
32 30 2
32 31 2
33 0 8
33 1 5
33 2 6
33 3 6
33 4 1
33 5 6
33 6 7
33 7 4
33 8 1
33 9 8
33 10 2
33 11 8
33 12 2
33 13 8
33 14 4
33 15 6
33 16 8
33 17 2
33 18 3
33 19 6
33 20 6
33 21 1
33 22 8
33 23 5
33 24 5
33 25 2
33 26 3
33 27 8
33 28 2
33 29 2
33 30 6
33 31 7
33 32 5
34 0 5
34 1 9
34 2 2
34 3 9
34 4 1
34 5 8
34 6 8
34 7 1
34 8 4
34 9 2
34 10 6
34 11 8
34 12 1
34 13 2
34 14 6
34 15 9
34 16 8
34 17 1
34 18 9
34 19 8
34 20 7
34 21 8
34 22 6
34 23 9
34 24 3
34 25 6
34 26 8
34 27 2
34 28 7
34 29 2
34 30 4
34 31 2
34 32 4
34 33 5
35 0 2
35 1 5
35 2 4
35 3 9
35 4 8
35 5 8
35 6 8
35 7 1
35 8 2
35 9 2
35 10 5
35 11 2
35 12 5
35 13 8
35 14 1
35 15 6
35 16 4
35 17 5
35 18 6
35 19 8
35 20 2
35 21 4
35 22 5
35 23 2
35 24 9
35 25 6
35 26 6
35 27 2
35 28 9
35 29 3
35 30 5
35 31 4
35 32 5
35 33 3
35 34 7
36 0 5
36 1 7
36 2 5
36 3 6
36 4 5
36 5 2
36 6 6
36 7 9
36 8 4
36 9 8
36 10 8
36 11 8
36 12 8
36 13 9
36 14 3
36 15 6
36 16 1
36 17 2
36 18 5
36 19 3
36 20 4
36 21 9
36 22 7
36 23 9
36 24 5
36 25 7
36 26 9
36 27 9
36 28 9
36 29 8
36 30 3
36 31 3
36 32 5
36 33 8
36 34 3
36 35 6
37 0 9
37 1 2
37 2 2
37 3 1
37 4 2
37 5 8
37 6 1
37 7 5
37 8 3
37 9 9
37 10 6
37 11 2
37 12 9
37 13 8
37 14 2
37 15 8
37 16 1
37 17 7
37 18 8
37 19 5
37 20 6
37 21 1
37 22 6
37 23 3
37 24 1
37 25 4
37 26 6
37 27 4
37 28 4
37 29 8
37 30 7
37 31 3
37 32 4
37 33 3
37 34 4
37 35 9
37 36 4
38 0 7
38 1 3
38 2 2
38 3 3
38 4 3
38 5 5
38 6 4
38 7 9
38 8 6
38 9 8
38 10 4
38 11 9
38 12 1
38 13 9
38 14 2
38 15 7
38 16 6
38 17 2
38 18 9
38 19 8
38 20 1
38 21 4
38 22 8
38 23 2
38 24 6
38 25 4
38 26 1
38 27 9
38 28 4
38 29 1
38 30 3
38 31 1
38 32 8
38 33 8
38 34 6
38 35 6
38 36 8
38 37 1
39 0 8
39 1 3
39 2 3
39 3 8
39 4 8
39 5 1
39 6 1
39 7 3
39 8 5
39 9 5
39 10 2
39 11 3
39 12 8
39 13 3
39 14 3
39 15 5
39 16 9
39 17 3
39 18 3
39 19 8
39 20 3
39 21 4
39 22 6
39 23 1
39 24 2
39 25 8
39 26 2
39 27 4
39 28 4
39 29 1
39 30 7
39 31 7
39 32 2
39 33 8
39 34 9
39 35 7
39 36 3
39 37 1
39 38 9
40 0 1
40 1 3
40 2 6
40 3 1
40 4 7
40 5 7
40 6 4
40 7 3
40 8 1
40 9 9
40 10 8
40 11 4
40 12 2
40 13 5
40 14 5
40 15 3
40 16 6
40 17 1
40 18 6
40 19 6
40 20 9
40 21 6
40 22 1
40 23 2
40 24 8
40 25 4
40 26 4
40 27 9
40 28 8
40 29 6
40 30 3
40 31 3
40 32 5
40 33 1
40 34 9
40 35 6
40 36 5
40 37 9
40 38 1
40 39 8
41 0 2
41 1 8
41 2 3
41 3 5
41 4 4
41 5 8
41 6 9
41 7 1
41 8 7
41 9 1
41 10 9
41 11 7
41 12 5
41 13 4
41 14 7
41 15 7
41 16 4
41 17 6
41 18 7
41 19 1
41 20 4
41 21 8
41 22 8
41 23 6
41 24 8
41 25 6
41 26 6
41 27 8
41 28 6
41 29 1
41 30 6
41 31 7
41 32 8
41 33 2
41 34 3
41 35 1
41 36 1
41 37 9
41 38 2
41 39 8
41 40 8
42 0 7
42 1 9
42 2 4
42 3 1
42 4 2
42 5 4
42 6 2
42 7 7
42 8 4
42 9 2
42 10 3
42 11 7
42 12 1
42 13 6
42 14 1
42 15 9
42 16 5
42 17 4
42 18 2
42 19 3
42 20 6
42 21 1
42 22 2
42 23 4
42 24 7
42 25 6
42 26 5
42 27 6
42 28 9
42 29 9
42 30 5
42 31 6
42 32 1
42 33 1
42 34 9
42 35 5
42 36 8
42 37 6
42 38 5
42 39 4
42 40 5
42 41 6
43 0 4
43 1 4
43 2 4
43 3 9
43 4 8
43 5 2
43 6 7
43 7 7
43 8 1
43 9 8
43 10 8
43 11 8
43 12 6
43 13 1
43 14 6
43 15 9
43 16 9
43 17 4
43 18 8
43 19 8
43 20 7
43 21 1
43 22 9
43 23 5
43 24 8
43 25 5
43 26 7
43 27 6
43 28 2
43 29 3
43 30 2
43 31 2
43 32 3
43 33 8
43 34 1
43 35 3
43 36 5
43 37 4
43 38 2
43 39 9
43 40 9
43 41 9
43 42 4
44 0 3
44 1 9
44 2 5
44 3 3
44 4 6
44 5 8
44 6 5
44 7 8
44 8 4
44 9 1
44 10 3
44 11 6
44 12 8
44 13 5
44 14 1
44 15 2
44 16 9
44 17 9
44 18 9
44 19 9
44 20 5
44 21 4
44 22 7
44 23 6
44 24 6
44 25 1
44 26 9
44 27 7
44 28 4
44 29 4
44 30 5
44 31 9
44 32 2
44 33 3
44 34 3
44 35 8
44 36 9
44 37 3
44 38 9
44 39 3
44 40 3
44 41 9
44 42 9
44 43 3
45 0 7
45 1 6
45 2 7
45 3 3
45 4 4
45 5 8
45 6 3
45 7 7
45 8 8
45 9 8
45 10 7
45 11 4
45 12 9
45 13 8
45 14 1
45 15 8
45 16 3
45 17 7
45 18 6
45 19 9
45 20 4
45 21 3
45 22 6
45 23 2
45 24 7
45 25 7
45 26 7
45 27 7
45 28 4
45 29 6
45 30 7
45 31 6
45 32 9
45 33 2
45 34 6
45 35 4
45 36 6
45 37 6
45 38 5
45 39 1
45 40 1
45 41 1
45 42 9
45 43 2
45 44 1
46 0 6
46 1 1
46 2 9
46 3 5
46 4 5
46 5 7
46 6 2
46 7 1
46 8 8
46 9 3
46 10 6
46 11 7
46 12 2
46 13 5
46 14 9
46 15 7
46 16 4
46 17 1
46 18 1
46 19 5
46 20 3
46 21 5
46 22 6
46 23 3
46 24 9
46 25 7
46 26 8
46 27 5
46 28 4
46 29 4
46 30 2
46 31 7
46 32 8
46 33 6
46 34 7
46 35 3
46 36 3
46 37 6
46 38 8
46 39 6
46 40 6
46 41 2
46 42 1
46 43 5
46 44 5
46 45 4
47 0 9
47 1 4
47 2 6
47 3 5
47 4 7
47 5 8
47 6 2
47 7 6
47 8 2
47 9 3
47 10 7
47 11 3
47 12 5
47 13 1
47 14 5
47 15 6
47 16 5
47 17 6
47 18 9
47 19 4
47 20 2
47 21 7
47 22 9
47 23 6
47 24 9
47 25 9
47 26 4
47 27 8
47 28 6
47 29 8
47 30 9
47 31 1
47 32 9
47 33 6
47 34 3
47 35 5
47 36 8
47 37 1
47 38 9
47 39 9
47 40 2
47 41 5
47 42 7
47 43 1
47 44 9
47 45 5
47 46 7
48 0 3
48 1 8
48 2 2
48 3 4
48 4 4
48 5 5
48 6 8
48 7 1
48 8 2
48 9 7
48 10 8
48 11 9
48 12 5
48 13 4
48 14 7
48 15 5
48 16 6
48 17 7
48 18 1
48 19 9
48 20 4
48 21 9
48 22 5
48 23 4
48 24 1
48 25 1
48 26 8
48 27 5
48 28 1
48 29 9
48 30 9
48 31 2
48 32 4
48 33 1
48 34 3
48 35 9
48 36 7
48 37 4
48 38 8
48 39 2
48 40 4
48 41 3
48 42 2
48 43 1
48 44 7
48 45 7
48 46 8
48 47 8
49 0 7
49 1 1
49 2 5
49 3 7
49 4 4
49 5 9
49 6 8
49 7 7
49 8 4
49 9 2
49 10 5
49 11 2
49 12 3
49 13 5
49 14 6
49 15 6
49 16 2
49 17 4
49 18 4
49 19 1
49 20 9
49 21 8
49 22 8
49 23 9
49 24 7
49 25 1
49 26 5
49 27 8
49 28 5
49 29 9
49 30 4
49 31 3
49 32 8
49 33 5
49 34 9
49 35 3
49 36 3
49 37 4
49 38 8
49 39 3
49 40 8
49 41 1
49 42 6
49 43 6
49 44 9
49 45 5
49 46 2
49 47 6
49 48 5
50 0 6
50 1 3
50 2 6
50 3 8
50 4 3
50 5 4
50 6 5
50 7 3
50 8 4
50 9 3
50 10 1
50 11 9
50 12 5
50 13 7
50 14 2
50 15 8
50 16 5
50 17 9
50 18 1
50 19 4
50 20 6
50 21 3
50 22 7
50 23 4
50 24 4
50 25 8
50 26 9
50 27 4
50 28 4
50 29 3
50 30 4
50 31 4
50 32 6
50 33 7
50 34 3
50 35 4
50 36 4
50 37 9
50 38 1
50 39 5
50 40 1
50 41 4
50 42 2
50 43 4
50 44 2
50 45 2
50 46 2
50 47 3
50 48 6
50 49 4
51 0 8
51 1 3
51 2 1
51 3 6
51 4 1
51 5 6
51 6 1
51 7 7
51 8 5
51 9 5
51 10 4
51 11 2
51 12 9
51 13 4
51 14 2
51 15 7
51 16 5
51 17 4
51 18 6
51 19 3
51 20 2
51 21 5
51 22 9
51 23 1
51 24 3
51 25 7
51 26 8
51 27 3
51 28 2
51 29 7
51 30 3
51 31 2
51 32 5
51 33 8
51 34 2
51 35 5
51 36 5
51 37 1
51 38 2
51 39 6
51 40 7
51 41 1
51 42 4
51 43 1
51 44 4
51 45 5
51 46 3
51 47 3
51 48 3
51 49 6
51 50 5
52 0 3
52 1 9
52 2 1
52 3 2
52 4 2
52 5 3
52 6 2
52 7 7
52 8 5
52 9 7
52 10 1
52 11 7
52 12 2
52 13 3
52 14 1
52 15 4
52 16 2
52 17 6
52 18 8
52 19 2
52 20 5
52 21 4
52 22 3
52 23 1
52 24 1
52 25 3
52 26 3
52 27 4
52 28 6
52 29 4
52 30 3
52 31 5
52 32 3
52 33 5
52 34 5
52 35 2
52 36 2
52 37 8
52 38 2
52 39 3
52 40 7
52 41 3
52 42 3
52 43 6
52 44 3
52 45 5
52 46 9
52 47 1
52 48 5
52 49 5
52 50 4
52 51 8
53 0 3
53 1 3
53 2 9
53 3 9
53 4 1
53 5 5
53 6 7
53 7 6
53 8 2
53 9 4
53 10 4
53 11 5
53 12 6
53 13 7
53 14 7
53 15 6
53 16 9
53 17 2
53 18 6
53 19 3
53 20 5
53 21 2
53 22 7
53 23 4
53 24 1
53 25 1
53 26 9
53 27 7
53 28 7
53 29 4
53 30 8
53 31 1
53 32 7
53 33 9
53 34 8
53 35 3
53 36 8
53 37 4
53 38 4
53 39 7
53 40 7
53 41 5
53 42 3
53 43 7
53 44 1
53 45 4
53 46 5
53 47 6
53 48 3
53 49 6
53 50 4
53 51 7
53 52 1
54 0 7
54 1 1
54 2 6
54 3 4
54 4 7
54 5 7
54 6 9
54 7 7
54 8 4
54 9 2
54 10 2
54 11 4
54 12 8
54 13 4
54 14 4
54 15 5
54 16 6
54 17 4
54 18 1
54 19 3
54 20 2
54 21 6
54 22 4
54 23 8
54 24 5
54 25 2
54 26 6
54 27 4
54 28 9
54 29 9
54 30 3
54 31 7
54 32 3
54 33 4
54 34 1
54 35 2
54 36 2
54 37 2
54 38 6
54 39 2
54 40 6
54 41 5
54 42 1
54 43 1
54 44 9
54 45 4
54 46 2
54 47 6
54 48 7
54 49 7
54 50 5
54 51 2
54 52 3
54 53 9
55 0 2
55 1 5
55 2 8
55 3 9
55 4 3
55 5 3
55 6 5
55 7 2
55 8 7
55 9 8
55 10 1
55 11 2
55 12 7
55 13 4
55 14 7
55 15 4
55 16 5
55 17 9
55 18 1
55 19 9
55 20 7
55 21 1
55 22 6
55 23 1
55 24 6
55 25 2
55 26 2
55 27 6
55 28 6
55 29 9
55 30 8
55 31 1
55 32 4
55 33 8
55 34 3
55 35 6
55 36 2
55 37 6
55 38 6
55 39 8
55 40 4
55 41 4
55 42 4
55 43 2
55 44 6
55 45 7
55 46 9
55 47 4
55 48 6
55 49 2
55 50 9
55 51 7
55 52 9
55 53 2
55 54 7
56 0 1
56 1 7
56 2 1
56 3 6
56 4 4
56 5 8
56 6 6
56 7 7
56 8 9
56 9 2
56 10 3
56 11 8
56 12 2
56 13 6
56 14 1
56 15 4
56 16 6
56 17 1
56 18 5
56 19 6
56 20 6
56 21 1
56 22 7
56 23 2
56 24 7
56 25 5
56 26 1
56 27 4
56 28 1
56 29 7
56 30 6
56 31 3
56 32 7
56 33 4
56 34 4
56 35 7
56 36 6
56 37 1
56 38 7
56 39 7
56 40 5
56 41 3
56 42 6
56 43 3
56 44 1
56 45 3
56 46 6
56 47 3
56 48 8
56 49 1
56 50 6
56 51 3
56 52 5
56 53 6
56 54 3
56 55 6
57 0 2
57 1 6
57 2 1
57 3 8
57 4 2
57 5 7
57 6 4
57 7 1
57 8 8
57 9 5
57 10 2
57 11 2
57 12 2
57 13 4
57 14 1
57 15 7
57 16 1
57 17 3
57 18 3
57 19 8
57 20 7
57 21 6
57 22 6
57 23 2
57 24 6
57 25 3
57 26 6
57 27 8
57 28 8
57 29 2
57 30 4
57 31 8
57 32 5
57 33 9
57 34 2
57 35 6
57 36 7
57 37 1
57 38 7
57 39 4
57 40 7
57 41 2
57 42 7
57 43 9
57 44 1
57 45 3
57 46 8
57 47 5
57 48 9
57 49 7
57 50 9
57 51 9
57 52 7
57 53 2
57 54 8
57 55 6
57 56 9
58 0 1
58 1 7
58 2 2
58 3 7
58 4 8
58 5 4
58 6 9
58 7 1
58 8 5
58 9 3
58 10 5
58 11 2
58 12 5
58 13 8
58 14 9
58 15 5
58 16 3
58 17 3
58 18 3
58 19 8
58 20 2
58 21 1
58 22 9
58 23 8
58 24 8
58 25 2
58 26 8
58 27 2
58 28 5
58 29 1
58 30 6
58 31 6
58 32 3
58 33 8
58 34 2
58 35 3
58 36 3
58 37 6
58 38 6
58 39 6
58 40 8
58 41 9
58 42 1
58 43 6
58 44 3
58 45 3
58 46 1
58 47 7
58 48 2
58 49 8
58 50 2
58 51 3
58 52 5
58 53 8
58 54 2
58 55 7
58 56 6
58 57 9
59 0 2
59 1 5
59 2 4
59 3 9
59 4 8
59 5 7
59 6 7
59 7 1
59 8 1
59 9 7
59 10 2
59 11 1
59 12 2
59 13 8
59 14 1
59 15 7
59 16 5
59 17 9
59 18 5
59 19 6
59 20 6
59 21 8
59 22 1
59 23 2
59 24 5
59 25 4
59 26 5
59 27 3
59 28 2
59 29 9
59 30 1
59 31 8
59 32 1
59 33 1
59 34 9
59 35 4
59 36 5
59 37 6
59 38 5
59 39 3
59 40 2
59 41 5
59 42 1
59 43 6
59 44 4
59 45 5
59 46 4
59 47 9
59 48 1
59 49 8
59 50 6
59 51 7
59 52 3
59 53 7
59 54 3
59 55 4
59 56 8
59 57 7
59 58 3
60 0 8
60 1 3
60 2 9
60 3 2
60 4 3
60 5 6
60 6 9
60 7 1
60 8 7
60 9 6
60 10 4
60 11 7
60 12 4
60 13 3
60 14 1
60 15 6
60 16 1
60 17 2
60 18 3
60 19 6
60 20 9
60 21 4
60 22 6
60 23 2
60 24 4
60 25 3
60 26 3
60 27 8
60 28 9
60 29 3
60 30 2
60 31 8
60 32 5
60 33 7
60 34 8
60 35 8
60 36 2
60 37 3
60 38 8
60 39 2
60 40 8
60 41 6
60 42 5
60 43 9
60 44 7
60 45 3
60 46 3
60 47 9
60 48 1
60 49 4
60 50 5
60 51 1
60 52 1
60 53 3
60 54 5
60 55 1
60 56 5
60 57 6
60 58 9
60 59 4
61 0 8
61 1 4
61 2 4
61 3 4
61 4 2
61 5 4
61 6 1
61 7 9
61 8 2
61 9 8
61 10 1
61 11 8
61 12 2
61 13 9
61 14 9
61 15 5
61 16 3
61 17 6
61 18 9
61 19 9
61 20 1
61 21 3
61 22 1
61 23 4
61 24 6
61 25 1
61 26 7
61 27 2
61 28 1
61 29 8
61 30 3
61 31 2
61 32 1
61 33 8
61 34 1
61 35 1
61 36 3
61 37 9
61 38 3
61 39 3
61 40 9
61 41 6
61 42 3
61 43 8
61 44 7
61 45 6
61 46 3
61 47 8
61 48 4
61 49 1
61 50 6
61 51 7
61 52 5
61 53 5
61 54 4
61 55 9
61 56 7
61 57 4
61 58 2
61 59 2
61 60 6
62 0 6
62 1 3
62 2 7
62 3 4
62 4 8
62 5 7
62 6 9
62 7 8
62 8 6
62 9 9
62 10 9
62 11 4
62 12 1
62 13 3
62 14 3
62 15 1
62 16 4
62 17 6
62 18 7
62 19 6
62 20 7
62 21 4
62 22 2
62 23 9
62 24 8
62 25 2
62 26 6
62 27 9
62 28 3
62 29 9
62 30 5
62 31 1
62 32 8
62 33 1
62 34 7
62 35 6
62 36 1
62 37 3
62 38 4
62 39 1
62 40 8
62 41 7
62 42 1
62 43 8
62 44 4
62 45 9
62 46 8
62 47 4
62 48 1
62 49 9
62 50 2
62 51 6
62 52 1
62 53 6
62 54 7
62 55 9
62 56 2
62 57 2
62 58 8
62 59 4
62 60 3
62 61 8
63 0 3
63 1 4
63 2 9
63 3 6
63 4 5
63 5 4
63 6 5
63 7 5
63 8 6
63 9 3
63 10 4
63 11 1
63 12 5
63 13 1
63 14 9
63 15 6
63 16 3
63 17 6
63 18 1
63 19 6
63 20 8
63 21 3
63 22 3
63 23 1
63 24 5
63 25 9
63 26 2
63 27 6
63 28 8
63 29 8
63 30 4
63 31 7
63 32 9
63 33 5
63 34 6
63 35 7
63 36 5
63 37 6
63 38 8
63 39 4
63 40 3
63 41 3
63 42 4
63 43 7
63 44 8
63 45 9
63 46 7
63 47 7
63 48 8
63 49 2
63 50 6
63 51 8
63 52 4
63 53 7
63 54 8
63 55 5
63 56 1
63 57 5
63 58 6
63 59 9
63 60 3
63 61 7
63 62 1
64 0 4
64 1 4
64 2 3
64 3 7
64 4 3
64 5 7
64 6 9
64 7 9
64 8 1
64 9 9
64 10 2
64 11 5
64 12 3
64 13 5
64 14 9
64 15 4
64 16 8
64 17 2
64 18 5
64 19 3
64 20 5
64 21 3
64 22 5
64 23 9
64 24 9
64 25 8
64 26 4
64 27 7
64 28 1
64 29 6
64 30 1
64 31 4
64 32 1
64 33 7
64 34 6
64 35 1
64 36 2
64 37 6
64 38 1
64 39 5
64 40 7
64 41 5
64 42 4
64 43 5
64 44 7
64 45 2
64 46 9
64 47 8
64 48 1
64 49 5
64 50 5
64 51 9
64 52 3
64 53 3
64 54 3
64 55 1
64 56 8
64 57 1
64 58 4
64 59 2
64 60 2
64 61 2
64 62 7
64 63 8
65 0 5
65 1 1
65 2 4
65 3 2
65 4 3
65 5 1
65 6 9
65 7 7
65 8 8
65 9 1
65 10 9
65 11 8
65 12 9
65 13 7
65 14 4
65 15 7
65 16 9
65 17 5
65 18 3
65 19 1
65 20 5
65 21 7
65 22 4
65 23 6
65 24 2
65 25 5
65 26 7
65 27 2
65 28 9
65 29 7
65 30 2
65 31 7
65 32 9
65 33 4
65 34 4
65 35 8
65 36 3
65 37 5
65 38 7
65 39 4
65 40 4
65 41 1
65 42 8
65 43 5
65 44 3
65 45 5
65 46 8
65 47 4
65 48 1
65 49 3
65 50 2
65 51 6
65 52 5
65 53 3
65 54 1
65 55 4
65 56 3
65 57 9
65 58 3
65 59 4
65 60 5
65 61 2
65 62 7
65 63 9
65 64 7
66 0 7
66 1 7
66 2 7
66 3 4
66 4 9
66 5 4
66 6 9
66 7 1
66 8 3
66 9 2
66 10 9
66 11 8
66 12 8
66 13 8
66 14 8
66 15 6
66 16 7
66 17 8
66 18 7
66 19 5
66 20 6
66 21 5
66 22 8
66 23 2
66 24 7
66 25 8
66 26 1
66 27 3
66 28 9
66 29 5
66 30 9
66 31 2
66 32 3
66 33 5
66 34 5
66 35 7
66 36 8
66 37 3
66 38 6
66 39 5
66 40 6
66 41 9
66 42 1
66 43 7
66 44 8
66 45 3
66 46 5
66 47 4
66 48 9
66 49 5
66 50 9
66 51 3
66 52 3
66 53 8
66 54 3
66 55 4
66 56 3
66 57 8
66 58 8
66 59 6
66 60 5
66 61 3
66 62 8
66 63 9
66 64 3
66 65 9
67 0 1
67 1 4
67 2 4
67 3 9
67 4 1
67 5 3
67 6 4
67 7 1
67 8 5
67 9 5
67 10 6
67 11 8
67 12 8
67 13 3
67 14 1
67 15 7
67 16 3
67 17 9
67 18 4
67 19 1
67 20 7
67 21 2
67 22 7
67 23 4
67 24 2
67 25 1
67 26 2
67 27 9
67 28 7
67 29 2
67 30 2
67 31 5
67 32 2
67 33 8
67 34 5
67 35 3
67 36 9
67 37 3
67 38 5
67 39 7
67 40 5
67 41 5
67 42 7
67 43 4
67 44 7
67 45 9
67 46 6
67 47 4
67 48 5
67 49 2
67 50 7
67 51 5
67 52 7
67 53 4
67 54 3
67 55 8
67 56 2
67 57 8
67 58 1
67 59 2
67 60 3
67 61 7
67 62 6
67 63 9
67 64 9
67 65 9
67 66 4
